200
200
160
160
160
159
159
158
158
157
156
156
155
155
154
153
153
153
152
151
151
150
150
149
149
147
147
146
145
145
145
145
144
143
143
143
143
143
142
142
142
142
142
141
141
141
140
140
140
140
140
139
139
139
138
138
133
132
132
131
131
129
127
127
124
122
122
121
121
120
120
119
119
117
116
115
115
115
115
114
114
112
112
111
111
110
109
109
108
108
107
106
106
106
105
104
104
102
102
101
100
100
100
100
100
100
100
99
98
97
96
96
95
95
95
95
95
94
93
92
92
90
89
89
87
87
86
85
84
84
84
84
83
83
82
81
81
79
79
79
78
78
78
78
78
77
77
77
76
76
76
76
76
75
74
74
72
72
72
70
69
68
68
68
67
67
66
66
65
65
65
64
62
62
62
62
60
60
59
57
56
56
55
55
54
53
53
53
53
50
50
49
48
48
46
44
44
42
42
42
41
41
